width = 28;
ICs_number = 22;
IC_widths = [3, 3, 3, 3, 3, 3, 3, 3, 3, 3, 3, 3, 3, 4, 4, 4, 4, 4, 4, 5, 5, 5];
IC_heights = [3, 4, 5, 6, 7, 8, 9, 10, 11, 16, 17, 21, 23, 3, 4, 5, 8, 13, 23, 6, 9, 13];